\ Model Ex3
\ LP format - for model browsing. Use MPS format to capture full model detail.
Maximize
  x[0,1] + x[0,2] + x[0,3] + x[0,4] + x[0,5] + x[0,7] + x[0,10] + x[1,4]
   + x[2,2] + x[2,5] + x[2,6] + x[2,7] + x[2,8] + x[2,9] + x[3,0] + x[3,9]
   + x[3,10] + x[4,1] + x[4,2] + x[4,5] + x[4,7] + x[4,10] + x[5,0]
   + x[5,1] + x[5,3] + x[5,4] + x[5,6] + x[5,8] + x[5,9] + x[6,0] + x[6,1]
   + x[6,3] + x[6,4] + x[6,6] + x[6,8] + x[6,9] + x[6,10] + x[7,0] + x[7,1]
   + x[7,2] + x[7,3] + x[7,4] + x[7,5] + x[7,6] + x[7,7] + x[7,8] + x[8,0]
   + x[8,2] + x[8,3] + x[8,5] + x[8,6] + x[8,7] + x[8,8] + x[8,9] + x[8,10]
Subject To
 R0: x[0,1] + x[0,2] + x[0,3] + x[0,4] + x[0,5] + x[0,7] + x[0,10] <= 2
 R1: x[1,4] <= 1
 R2: x[2,2] + x[2,5] + x[2,6] + x[2,7] + x[2,8] + x[2,9] <= 1
 R3: x[3,0] + x[3,9] + x[3,10] <= 1
 R4: x[4,1] + x[4,2] + x[4,5] + x[4,7] + x[4,10] <= 1
 R5: x[5,0] + x[5,1] + x[5,3] + x[5,4] + x[5,6] + x[5,8] + x[5,9] <= 1
 R6: x[6,0] + x[6,1] + x[6,3] + x[6,4] + x[6,6] + x[6,8] + x[6,9] + x[6,10]
   <= 1
 R7: x[7,0] + x[7,1] + x[7,2] + x[7,3] + x[7,4] + x[7,5] + x[7,6] + x[7,7]
   + x[7,8] <= 1
 R8: x[8,0] + x[8,2] + x[8,3] + x[8,5] + x[8,6] + x[8,7] + x[8,8] + x[8,9]
   + x[8,10] <= 2
 R9: x[3,0] + x[5,0] + x[6,0] + x[7,0] + x[8,0] <= 1
 R10: x[0,1] + x[4,1] + x[5,1] + x[6,1] + x[7,1] <= 1
 R11: x[0,2] + x[2,2] + x[4,2] + x[7,2] + x[8,2] <= 1
 R12: x[0,3] + x[5,3] + x[6,3] + x[7,3] + x[8,3] <= 1
 R13: x[0,4] + x[1,4] + x[5,4] + x[6,4] + x[7,4] <= 1
 R14: x[0,5] + x[2,5] + x[4,5] + x[7,5] + x[8,5] <= 1
 R15: x[2,6] + x[5,6] + x[6,6] + x[7,6] + x[8,6] <= 1
 R16: x[0,7] + x[2,7] + x[4,7] + x[7,7] + x[8,7] <= 1
 R17: x[2,8] + x[5,8] + x[6,8] + x[7,8] + x[8,8] <= 1
 R18: x[2,9] + x[3,9] + x[5,9] + x[6,9] + x[8,9] <= 1
 R19: x[0,10] + x[3,10] + x[4,10] + x[6,10] + x[8,10] <= 1
Bounds
Binaries
 x[0,1] x[0,2] x[0,3] x[0,4] x[0,5] x[0,7] x[0,10] x[1,4] x[2,2] x[2,5]
 x[2,6] x[2,7] x[2,8] x[2,9] x[3,0] x[3,9] x[3,10] x[4,1] x[4,2] x[4,5]
 x[4,7] x[4,10] x[5,0] x[5,1] x[5,3] x[5,4] x[5,6] x[5,8] x[5,9] x[6,0]
 x[6,1] x[6,3] x[6,4] x[6,6] x[6,8] x[6,9] x[6,10] x[7,0] x[7,1] x[7,2]
 x[7,3] x[7,4] x[7,5] x[7,6] x[7,7] x[7,8] x[8,0] x[8,2] x[8,3] x[8,5]
 x[8,6] x[8,7] x[8,8] x[8,9] x[8,10]
End
